/* Objective function */
max: 0.14X1 + 0.20X2 + 0.20X3 + 0.10X4;

/* Constraints */
X1 + X2 + X3 + X4 <= 250;
0.45X1 - 0.55X2 >= 0;
0.75X1 - 0.25X2 - 0.25X3 - 0.25X4 >= 0;
-0.25X1 + 0.75X2 - 0.25X3 - 0.25X4 <= 0;
-0.01X1 + 0.05X2 + 0.05X3 - 0.05X4 <= 0;
